p cnf 16 96
-1 -5 0
1 5 0
-5 -9 0
5 9 0
-9 -13 0
9 13 0
-2 -6 0
2 6 0
-6 -10 0
6 10 0
-10 -14 0
10 14 0
-3 -7 0
3 7 0
-7 -11 0
7 11 0
-11 -15 0
11 15 0
-4 -8 0
4 8 0
-8 -12 0
8 12 0
-12 -16 0
12 16 0
